data;

param n:=25;
param p:=3;
param r:=[1] 0 [2] 2 [3] 0 [4] 0 [5] 0 [6] 11 [7] 6 [8] 10 [9] 10 [10] 15 [11] 17 [12] 13 [13] 30 [14] 16 [15] 24 [16] 23 [17] 19 [18] 38 [19] 52 [20] 9 [21] 21 [22] 0 [23] 46 [24] 57 [25] 3 ;
param w:=[1] 40 [2] 59 [3] 56 [4] 61 [5] 21 [6] 46 [7] 33 [8] 96 [9] 3 [10] 67 [11] 95 [12] 6 [13] 8 [14] 47 [15] 45 [16] 67 [17] 33 [18] 41 [19] 26 [20] 20 [21] 28 [22] 11 [23] 39 [24] 93 [25] 7 ;

end;
